p cnf 322 1314
1 -2 0
2 -1 0
3 -4 0
4 -3 0
5 -6 0
6 -5 0
7 -8 0
8 -7 0
9 -10 0
10 -9 0
11 -12 0
12 -11 0
13 -14 0
14 -13 0
15 -16 0
16 -15 0
17 -18 0
18 -17 0
19 -20 0
20 -19 0
21 -22 0
22 -21 0
23 -24 0
24 -23 0
25 -26 0
26 -25 0
27 -28 0
28 -27 0
29 -30 0
30 -29 0
31 -32 0
32 -31 0
33 -34 0
34 -33 0
35 -36 0
36 -35 0
37 -38 0
38 -37 0
39 -40 0
40 -39 0
41 -42 0
42 -41 0
43 -44 0
44 -43 0
45 -46 0
46 -45 0
47 -48 0
48 -47 0
49 -50 0
50 -49 0
51 -52 0
52 -51 0
53 -54 0
54 -53 0
55 -56 0
56 -55 0
57 -58 0
58 -57 0
59 -60 0
60 -59 0
61 -62 0
62 -61 0
63 -64 0
64 -63 0
65 -66 0
66 -65 0
67 -68 0
68 -67 0
69 -70 0
70 -69 0
71 -72 0
72 -71 0
73 -74 0
74 -73 0
75 -76 0
76 -75 0
77 -78 0
78 -77 0
79 -80 0
80 -79 0
29 81 0
13 81 0
-29 -13 -81 0
21 82 0
5 82 0
-21 -5 -82 0
19 83 0
3 83 0
-19 -3 -83 0
1 84 0
17 84 0
-1 -17 -84 0
3 85 0
-84 85 0
-3 84 -85 0
19 86 0
-84 86 0
-19 84 -86 0
21 87 0
-83 -85 -86 87 0
-21 86 -87 0
-21 85 -87 0
-21 83 -87 0
5 88 0
-83 -85 -86 88 0
-5 86 -88 0
-5 85 -88 0
-5 83 -88 0
7 89 0
-82 -87 -88 89 0
-7 88 -89 0
-7 87 -89 0
-7 82 -89 0
23 90 0
7 90 0
-23 -7 -90 0
23 91 0
-82 -87 -88 91 0
-23 88 -91 0
-23 87 -91 0
-23 82 -91 0
25 92 0
-89 -90 -91 92 0
-25 91 -92 0
-25 90 -92 0
-25 89 -92 0
9 93 0
-89 -90 -91 93 0
-9 91 -93 0
-9 90 -93 0
-9 89 -93 0
25 94 0
9 94 0
-25 -9 -94 0
11 95 0
-92 -93 -94 95 0
-11 94 -95 0
-11 93 -95 0
-11 92 -95 0
27 96 0
-92 -93 -94 96 0
-27 94 -96 0
-27 93 -96 0
-27 92 -96 0
11 97 0
27 97 0
-11 -27 -97 0
29 98 0
-95 -96 -97 98 0
-29 97 -98 0
-29 96 -98 0
-29 95 -98 0
13 99 0
-95 -96 -97 99 0
-13 97 -99 0
-13 96 -99 0
-13 95 -99 0
-15 99 0
-15 98 0
-15 81 0
3 19 -100 0
19 -84 -100 0
3 -84 -100 0
-19 -3 100 0
-19 84 100 0
-3 84 100 0
21 5 -101 0
21 100 -101 0
5 100 -101 0
-21 -5 101 0
101 -21 -100 0
101 -5 -100 0
23 7 -102 0
23 101 -102 0
7 101 -102 0
-23 -7 102 0
102 -23 -101 0
102 -7 -101 0
25 9 -103 0
25 102 -103 0
9 102 -103 0
-25 -9 103 0
103 -25 -102 0
103 -9 -102 0
27 11 -104 0
11 103 -104 0
27 103 -104 0
104 -11 -27 0
104 -11 -103 0
104 -27 -103 0
29 13 -105 0
29 104 -105 0
13 104 -105 0
-29 -13 105 0
105 -29 -104 0
105 -13 -104 0
31 15 105 -106 0
15 -31 -105 -106 0
31 -15 -105 -106 0
-31 -15 105 -106 0
106 -15 -31 -105 0
31 -15 105 106 0
15 -31 105 106 0
31 15 -105 106 0
-47 -106 0
27 11 103 -107 0
-27 11 -103 -107 0
-11 27 -103 -107 0
-11 -27 103 -107 0
107 -11 -27 -103 0
-11 27 103 107 0
-27 11 103 107 0
27 11 -103 107 0
25 9 102 -108 0
-25 9 -102 -108 0
25 -9 -102 -108 0
-25 -9 102 -108 0
108 -9 -25 -102 0
25 -9 102 108 0
-25 9 102 108 0
25 9 -102 108 0
23 7 101 -109 0
-23 7 -101 -109 0
23 -7 -101 -109 0
-23 -7 101 -109 0
109 -7 -23 -101 0
23 -7 101 109 0
-23 7 101 109 0
23 7 -101 109 0
3 19 84 -110 0
3 -19 -84 -110 0
19 -3 -84 -110 0
-19 -3 84 -110 0
110 -3 -19 -84 0
19 -3 84 110 0
3 -19 84 110 0
3 19 -84 110 0
1 -17 -111 0
17 -1 -111 0
111 -1 -17 0
17 1 111 0
33 112 0
-111 112 0
-33 111 -112 0
-110 -112 -113 0
35 -112 -113 0
35 -110 -113 0
110 112 113 0
-35 112 113 0
-35 110 113 0
21 5 100 -114 0
-21 5 -100 -114 0
21 -5 -100 -114 0
-21 -5 100 -114 0
114 -5 -21 -100 0
21 -5 100 114 0
-21 5 100 114 0
21 5 -100 114 0
113 114 -115 0
37 114 -115 0
37 113 -115 0
-113 -114 115 0
-37 -114 115 0
-37 -113 115 0
39 115 -116 0
39 109 -116 0
109 115 -116 0
116 -39 -115 0
116 -39 -109 0
-109 -115 116 0
41 116 -117 0
41 108 -117 0
108 116 -117 0
117 -41 -116 0
117 -41 -108 0
-108 -116 117 0
43 117 -118 0
43 107 -118 0
107 117 -118 0
118 -43 -117 0
118 -43 -107 0
-107 -117 118 0
29 13 104 -119 0
13 -29 -104 -119 0
29 -13 -104 -119 0
-29 -13 104 -119 0
119 -13 -29 -104 0
29 -13 104 119 0
13 -29 104 119 0
29 13 -104 119 0
45 119 -120 0
118 119 -120 0
45 118 -120 0
-45 -119 120 0
-118 -119 120 0
120 -45 -118 0
47 106 120 -121 0
-47 106 -120 -121 0
47 -106 -120 -121 0
-47 -106 120 -121 0
-47 -106 -120 121 0
47 -106 120 121 0
-47 106 120 121 0
47 106 -120 121 0
-63 -121 0
43 107 117 -122 0
-43 107 -117 -122 0
43 -107 -117 -122 0
-43 -107 117 -122 0
-43 -107 -117 122 0
43 -107 117 122 0
-43 107 117 122 0
43 107 -117 122 0
41 108 116 -123 0
-41 108 -116 -123 0
41 -108 -116 -123 0
-41 -108 116 -123 0
-41 -108 -116 123 0
41 -108 116 123 0
-41 108 116 123 0
41 108 -116 123 0
35 110 112 -124 0
-35 110 -112 -124 0
35 -110 -112 -124 0
-35 -110 112 -124 0
-35 -110 -112 124 0
35 -110 112 124 0
-35 110 112 124 0
35 110 -112 124 0
-33 111 -125 0
33 -111 -125 0
-33 -111 125 0
33 111 125 0
125 126 0
49 126 0
-49 -125 -126 0
51 -126 -127 0
124 -126 -127 0
51 124 -127 0
-51 126 127 0
-124 126 127 0
127 -51 -124 0
37 113 114 -128 0
-37 -113 114 -128 0
37 -113 -114 -128 0
-37 113 -114 -128 0
-37 -113 -114 128 0
37 113 -114 128 0
-37 113 114 128 0
37 -113 114 128 0
53 128 -129 0
53 127 -129 0
127 128 -129 0
129 -53 -128 0
129 -53 -127 0
-127 -128 129 0
39 109 115 -130 0
-39 109 -115 -130 0
39 -109 -115 -130 0
-39 -109 115 -130 0
-39 -109 -115 130 0
39 -109 115 130 0
-39 109 115 130 0
39 109 -115 130 0
55 130 -131 0
55 129 -131 0
129 130 -131 0
131 -55 -130 0
131 -55 -129 0
-129 -130 131 0
57 131 -132 0
57 123 -132 0
123 131 -132 0
132 -57 -131 0
132 -57 -123 0
-123 -131 132 0
122 132 -133 0
59 132 -133 0
59 122 -133 0
-122 -132 133 0
-59 -132 133 0
-59 -122 133 0
45 118 119 -134 0
-45 -118 119 -134 0
45 -118 -119 -134 0
-45 118 -119 -134 0
-45 -118 -119 134 0
45 118 -119 134 0
-45 118 119 134 0
45 -118 119 134 0
61 134 -135 0
133 134 -135 0
61 133 -135 0
-61 -134 135 0
-133 -134 135 0
135 -61 -133 0
63 121 135 -136 0
-63 121 -135 -136 0
63 -121 -135 -136 0
-63 -121 135 -136 0
-63 -121 -135 136 0
63 -121 135 136 0
-63 121 135 136 0
63 121 -135 136 0
-79 -136 0
41 0
-33 17 -137 0
33 -17 -137 0
137 -17 -33 0
17 33 137 0
-49 137 -138 0
49 -137 -138 0
-49 -137 138 0
49 137 138 0
65 139 0
138 139 0
-65 -138 -139 0
49 -51 -140 0
51 -49 -140 0
140 -49 -51 0
49 51 140 0
49 141 0
-137 141 0
-49 137 -141 0
-35 33 -142 0
-33 35 -142 0
142 -33 -35 0
35 33 142 0
17 143 0
33 143 0
-17 -33 -143 0
17 -19 -144 0
19 -17 -144 0
144 -17 -19 0
17 19 144 0
142 143 144 -145 0
-142 -143 144 -145 0
-142 143 -144 -145 0
142 -143 -144 -145 0
-142 -143 -144 145 0
142 143 -144 145 0
142 -143 144 145 0
-142 143 144 145 0
140 141 145 -146 0
-140 -141 145 -146 0
-140 141 -145 -146 0
140 -141 -145 -146 0
-140 -141 -145 146 0
140 141 -145 146 0
140 -141 145 146 0
-140 141 145 146 0
65 -67 -147 0
67 -65 -147 0
147 -65 -67 0
65 67 147 0
146 -147 -148 0
-139 -147 -148 0
-139 146 -148 0
-146 147 148 0
139 147 148 0
139 -146 148 0
-140 145 -149 0
-140 -141 -149 0
-141 145 -149 0
140 -145 149 0
140 141 149 0
141 -145 149 0
-49 150 0
-51 150 0
49 51 -150 0
-53 150 -151 0
53 -150 -151 0
-53 -150 151 0
53 150 151 0
-142 144 -152 0
-142 -143 -152 0
-143 144 -152 0
142 -144 152 0
142 143 152 0
143 -144 152 0
-35 153 0
-33 153 0
35 33 -153 0
-37 153 -154 0
37 -153 -154 0
-37 -153 154 0
37 153 154 0
-17 155 0
-19 155 0
17 19 -155 0
-21 155 -156 0
21 -155 -156 0
-21 -155 156 0
21 155 156 0
144 -156 -157 0
-144 156 -157 0
157 -144 -156 0
144 156 157 0
152 154 157 -158 0
-152 -154 157 -158 0
-152 154 -157 -158 0
152 -154 -157 -158 0
-152 -154 -157 158 0
152 154 -157 158 0
152 -154 157 158 0
-152 154 157 158 0
149 151 158 -159 0
-149 -151 158 -159 0
-149 151 -158 -159 0
149 -151 -158 -159 0
-149 -151 -158 159 0
149 151 -158 159 0
149 -151 158 159 0
-149 151 158 159 0
-65 160 0
-67 160 0
65 67 -160 0
-69 160 -161 0
69 -160 -161 0
-69 -160 161 0
69 160 161 0
159 -161 -162 0
148 -161 -162 0
148 159 -162 0
-159 161 162 0
-148 161 162 0
-148 -159 162 0
-69 163 0
-160 163 0
69 160 -163 0
-71 163 -164 0
71 -163 -164 0
-71 -163 164 0
71 163 164 0
-162 164 -165 0
162 -164 -165 0
-162 -164 165 0
162 164 165 0
-151 -158 -166 0
149 -151 -166 0
149 -158 -166 0
151 158 166 0
-149 151 166 0
-149 158 166 0
-53 167 0
-150 167 0
53 150 -167 0
-55 167 -168 0
55 -167 -168 0
-55 -167 168 0
55 167 168 0
-154 157 -169 0
152 -154 -169 0
152 157 -169 0
154 -157 169 0
-152 154 169 0
-152 -157 169 0
-37 170 0
-153 170 0
37 153 -170 0
-39 170 -171 0
39 -170 -171 0
-39 -170 171 0
39 170 171 0
156 172 0
144 172 0
144 156 172 0
-144 -156 -172 0
-21 173 0
-155 173 0
21 155 -173 0
-23 173 -174 0
23 -173 -174 0
-23 -173 174 0
23 173 174 0
-172 174 -175 0
172 -174 -175 0
-172 -174 175 0
172 174 175 0
169 171 175 -176 0
-169 -171 175 -176 0
-169 171 -175 -176 0
169 -171 -175 -176 0
-169 -171 -175 176 0
169 171 -175 176 0
169 -171 175 176 0
-169 171 175 176 0
166 168 176 -177 0
-166 -168 176 -177 0
-166 168 -176 -177 0
166 -168 -176 -177 0
-166 -168 -176 177 0
166 168 -176 177 0
166 -168 176 177 0
-166 168 176 177 0
7 165 177 0
7 -165 -177 0
-7 -165 177 0
-7 165 -177 0
-11 0
-27 0
51 178 0
53 178 0
-51 -53 -178 0
55 179 0
-178 179 0
-55 178 -179 0
57 180 0
-179 180 0
-57 179 -180 0
-59 181 0
180 181 0
59 -180 -181 0
-61 182 0
-181 182 0
61 181 -182 0
63 182 0
69 183 0
67 183 0
-69 -67 -183 0
71 184 0
-183 184 0
-71 183 -184 0
73 185 0
-184 185 0
-73 184 -185 0
-75 186 0
185 186 0
75 -185 -186 0
-77 187 0
-186 187 0
77 186 -187 0
79 187 0
-63 0
-79 0
3 188 0
1 188 0
-3 -1 -188 0
5 189 0
-188 189 0
-5 188 -189 0
7 190 0
-189 190 0
-7 189 -190 0
-9 190 0
19 191 0
17 191 0
-19 -17 -191 0
21 192 0
-191 192 0
-21 191 -192 0
23 193 0
-192 193 0
-23 192 -193 0
-25 193 0
59 194 0
-180 194 0
-59 180 -194 0
-61 194 0
75 195 0
-185 195 0
-75 185 -195 0
-77 195 0
-31 99 0
-31 98 0
-31 81 0
-31 -15 0
114 196 0
113 196 0
-113 -114 -196 0
37 197 0
113 197 0
-37 -113 -197 0
37 198 0
114 198 0
-37 -114 -198 0
109 199 0
-196 -197 -198 199 0
-109 198 -199 0
-109 197 -199 0
-109 196 -199 0
39 200 0
-196 -197 -198 200 0
-39 198 -200 0
-39 197 -200 0
-39 196 -200 0
39 201 0
109 201 0
-39 -109 -201 0
108 202 0
-199 -200 -201 202 0
-108 201 -202 0
-108 200 -202 0
-108 199 -202 0
41 203 0
-199 -200 -201 203 0
-41 201 -203 0
-41 200 -203 0
-41 199 -203 0
41 204 0
108 204 0
-41 -108 -204 0
107 205 0
-202 -203 -204 205 0
-107 204 -205 0
-107 203 -205 0
-107 202 -205 0
43 206 0
-202 -203 -204 206 0
-43 204 -206 0
-43 203 -206 0
-43 202 -206 0
43 207 0
107 207 0
-43 -107 -207 0
119 208 0
-205 -206 -207 208 0
-119 207 -208 0
-119 206 -208 0
-119 205 -208 0
45 209 0
-205 -206 -207 209 0
-45 207 -209 0
-45 206 -209 0
-45 205 -209 0
45 210 0
119 210 0
-45 -119 -210 0
-47 210 0
-47 209 0
-47 208 0
-106 210 0
-106 209 0
-106 208 0
51 211 0
124 211 0
-51 -124 -211 0
49 212 0
125 212 0
-49 -125 -212 0
51 213 0
-212 213 0
-51 212 -213 0
124 214 0
-212 214 0
-124 212 -214 0
128 215 0
-211 -213 -214 215 0
-128 214 -215 0
-128 213 -215 0
-128 211 -215 0
53 216 0
-211 -213 -214 216 0
-53 214 -216 0
-53 213 -216 0
-53 211 -216 0
53 217 0
128 217 0
-53 -128 -217 0
130 218 0
-215 -216 -217 218 0
-130 217 -218 0
-130 216 -218 0
-130 215 -218 0
55 219 0
-215 -216 -217 219 0
-55 217 -219 0
-55 216 -219 0
-55 215 -219 0
55 220 0
130 220 0
-55 -130 -220 0
123 221 0
-218 -219 -220 221 0
-123 220 -221 0
-123 219 -221 0
-123 218 -221 0
57 222 0
-218 -219 -220 222 0
-57 220 -222 0
-57 219 -222 0
-57 218 -222 0
57 223 0
123 223 0
-57 -123 -223 0
122 224 0
-221 -222 -223 224 0
-122 223 -224 0
-122 222 -224 0
-122 221 -224 0
59 225 0
-221 -222 -223 225 0
-59 223 -225 0
-59 222 -225 0
-59 221 -225 0
59 226 0
122 226 0
-59 -122 -226 0
134 227 0
-224 -225 -226 227 0
-134 226 -227 0
-134 225 -227 0
-134 224 -227 0
61 228 0
-224 -225 -226 228 0
-61 226 -228 0
-61 225 -228 0
-61 224 -228 0
61 229 0
134 229 0
-61 -134 -229 0
-63 229 0
-63 228 0
-63 227 0
-121 229 0
-121 228 0
-121 227 0
-49 125 -230 0
49 -125 -230 0
-49 -125 230 0
49 125 230 0
65 231 0
-230 231 0
-65 230 -231 0
51 124 126 -232 0
-51 124 -126 -232 0
51 -124 -126 -232 0
-51 -124 126 -232 0
-51 -124 -126 232 0
51 -124 126 232 0
-51 124 126 232 0
51 124 -126 232 0
-232 233 0
-231 233 0
231 232 -233 0
67 234 0
-231 234 0
-67 231 -234 0
67 235 0
-232 235 0
-67 232 -235 0
53 127 128 -236 0
-53 -127 128 -236 0
53 -127 -128 -236 0
-53 127 -128 -236 0
-53 -127 -128 236 0
53 127 -128 236 0
-53 127 128 236 0
53 -127 128 236 0
236 237 0
-233 -234 -235 237 0
235 -236 -237 0
234 -236 -237 0
233 -236 -237 0
69 238 0
236 238 0
-69 -236 -238 0
69 239 0
-233 -234 -235 239 0
-69 235 -239 0
-69 234 -239 0
-69 233 -239 0
55 129 130 -240 0
-55 -129 130 -240 0
55 -129 -130 -240 0
-55 129 -130 -240 0
-55 -129 -130 240 0
55 129 -130 240 0
-55 129 130 240 0
55 -129 130 240 0
240 241 0
-237 -238 -239 241 0
239 -240 -241 0
238 -240 -241 0
237 -240 -241 0
71 242 0
-237 -238 -239 242 0
-71 239 -242 0
-71 238 -242 0
-71 237 -242 0
71 243 0
240 243 0
-71 -240 -243 0
57 123 131 -244 0
-57 123 -131 -244 0
57 -123 -131 -244 0
-57 -123 131 -244 0
-57 -123 -131 244 0
57 -123 131 244 0
-57 123 131 244 0
57 123 -131 244 0
244 245 0
-241 -242 -243 245 0
243 -244 -245 0
242 -244 -245 0
241 -244 -245 0
73 246 0
-241 -242 -243 246 0
-73 243 -246 0
-73 242 -246 0
-73 241 -246 0
73 247 0
244 247 0
-73 -244 -247 0
59 122 132 -248 0
-59 122 -132 -248 0
59 -122 -132 -248 0
-59 -122 132 -248 0
-59 -122 -132 248 0
59 -122 132 248 0
-59 122 132 248 0
59 122 -132 248 0
248 249 0
-245 -246 -247 249 0
247 -248 -249 0
246 -248 -249 0
245 -248 -249 0
75 250 0
-245 -246 -247 250 0
-75 247 -250 0
-75 246 -250 0
-75 245 -250 0
75 251 0
248 251 0
-75 -248 -251 0
61 133 134 -252 0
-61 -133 134 -252 0
61 -133 -134 -252 0
-61 133 -134 -252 0
-61 -133 -134 252 0
61 133 -134 252 0
-61 133 134 252 0
61 -133 134 252 0
252 253 0
-249 -250 -251 253 0
251 -252 -253 0
250 -252 -253 0
249 -252 -253 0
77 254 0
-249 -250 -251 254 0
-77 251 -254 0
-77 250 -254 0
-77 249 -254 0
77 255 0
252 255 0
-77 -252 -255 0
-79 255 0
-79 254 0
-79 253 0
-136 255 0
-136 254 0
-136 253 0
-43 0
-45 0
35 0
-47 0
39 0
37 0
-33 0
-164 -177 -256 0
162 -164 -256 0
162 -177 -256 0
164 177 256 0
-162 164 256 0
-162 177 256 0
-71 257 0
-163 257 0
71 163 -257 0
-73 257 -258 0
73 -257 -258 0
-73 -257 258 0
73 257 258 0
-256 258 -259 0
256 -258 -259 0
-256 -258 259 0
256 258 259 0
-168 176 -260 0
166 -168 -260 0
166 176 -260 0
168 -176 260 0
-166 168 260 0
-166 -176 260 0
-55 261 0
-167 261 0
55 167 -261 0
-57 261 -262 0
57 -261 -262 0
-57 -261 262 0
57 261 262 0
-171 -175 -263 0
169 -171 -263 0
169 -175 -263 0
171 175 263 0
-169 171 263 0
-169 175 263 0
-39 264 0
-170 264 0
39 170 -264 0
-41 264 -265 0
41 -264 -265 0
-41 -264 265 0
41 264 265 0
174 266 0
-172 266 0
-172 174 266 0
172 -174 -266 0
-23 267 0
-173 267 0
23 173 -267 0
-25 267 -268 0
25 -267 -268 0
-25 -267 268 0
25 267 268 0
-266 268 -269 0
266 -268 -269 0
-266 -268 269 0
266 268 269 0
263 265 269 -270 0
-263 -265 269 -270 0
-263 265 -269 -270 0
263 -265 -269 -270 0
-263 -265 -269 270 0
263 265 -269 270 0
263 -265 269 270 0
-263 265 269 270 0
260 262 270 -271 0
-260 -262 270 -271 0
-260 262 -270 -271 0
260 -262 -270 -271 0
-260 -262 -270 271 0
260 262 -270 271 0
260 -262 270 271 0
-260 262 270 271 0
9 259 271 0
9 -259 -271 0
-9 -259 271 0
-9 259 -271 0
-258 -271 -272 0
256 -258 -272 0
256 -271 -272 0
258 271 272 0
-256 258 272 0
-256 271 272 0
-262 270 -273 0
260 -262 -273 0
260 270 -273 0
262 -270 273 0
-260 262 273 0
-260 -270 273 0
-57 274 0
-261 274 0
57 261 -274 0
-59 274 -275 0
59 -274 -275 0
-59 -274 275 0
59 274 275 0
-265 -269 -276 0
263 -265 -276 0
263 -269 -276 0
265 269 276 0
-263 265 276 0
-263 269 276 0
-41 277 0
-264 277 0
41 264 -277 0
-43 277 -278 0
43 -277 -278 0
-43 -277 278 0
43 277 278 0
268 279 0
-266 279 0
-266 268 279 0
266 -268 -279 0
-25 280 0
-267 280 0
25 267 -280 0
-27 280 -281 0
27 -280 -281 0
-27 -280 281 0
27 280 281 0
-279 281 -282 0
279 -281 -282 0
-279 -281 282 0
279 281 282 0
276 278 282 -283 0
-276 -278 282 -283 0
-276 278 -282 -283 0
276 -278 -282 -283 0
-276 -278 -282 283 0
276 278 -282 283 0
276 -278 282 283 0
-276 278 282 283 0
273 275 283 -284 0
-273 -275 283 -284 0
-273 275 -283 -284 0
273 -275 -283 -284 0
-273 -275 -283 284 0
273 275 -283 284 0
273 -275 283 284 0
-273 275 283 284 0
-73 285 0
-257 285 0
73 257 -285 0
-75 285 -286 0
75 -285 -286 0
-75 -285 286 0
75 285 286 0
-284 -286 -287 0
272 -286 -287 0
272 -284 -287 0
284 286 287 0
-272 286 287 0
-272 284 287 0
-275 283 -288 0
273 -275 -288 0
273 283 -288 0
275 -283 288 0
-273 275 288 0
-273 -283 288 0
-59 289 0
-274 289 0
59 274 -289 0
-61 289 -290 0
61 -289 -290 0
-61 -289 290 0
61 289 290 0
-278 -282 -291 0
276 -278 -291 0
276 -282 -291 0
278 282 291 0
-276 278 291 0
-276 282 291 0
-43 292 0
-277 292 0
43 277 -292 0
-45 292 -293 0
45 -292 -293 0
-45 -292 293 0
45 292 293 0
281 294 0
-279 294 0
-279 281 294 0
279 -281 -294 0
-27 295 0
-280 295 0
27 280 -295 0
-29 295 -296 0
29 -295 -296 0
-29 -295 296 0
29 295 296 0
-294 296 -297 0
294 -296 -297 0
-294 -296 297 0
294 296 297 0
291 293 297 -298 0
-291 -293 297 -298 0
-291 293 -297 -298 0
291 -293 -297 -298 0
-291 -293 -297 298 0
291 293 -297 298 0
291 -293 297 298 0
-291 293 297 298 0
288 290 298 -299 0
-288 -290 298 -299 0
-288 290 -298 -299 0
288 -290 -298 -299 0
-288 -290 -298 299 0
288 290 -298 299 0
288 -290 298 299 0
-288 290 298 299 0
-75 300 0
-285 300 0
75 285 -300 0
-77 300 -301 0
77 -300 -301 0
-77 -300 301 0
77 300 301 0
299 -301 -302 0
287 -301 -302 0
287 299 -302 0
-299 301 302 0
-287 301 302 0
-287 -299 302 0
-77 303 0
-300 303 0
77 300 -303 0
79 302 303 -304 0
-79 -302 303 -304 0
79 -302 -303 -304 0
-79 302 -303 -304 0
-79 -302 -303 304 0
79 302 -303 304 0
-79 302 303 304 0
79 -302 303 304 0
-290 -298 -305 0
288 -290 -305 0
288 -298 -305 0
290 298 305 0
-288 290 305 0
-288 298 305 0
-61 306 0
-289 306 0
61 289 -306 0
63 305 306 -307 0
-63 -305 306 -307 0
63 -305 -306 -307 0
-63 305 -306 -307 0
-63 -305 -306 307 0
63 305 -306 307 0
-63 305 306 307 0
63 -305 306 307 0
-293 297 -308 0
291 -293 -308 0
291 297 -308 0
293 -297 308 0
-291 293 308 0
-291 -297 308 0
-45 309 0
-292 309 0
45 292 -309 0
47 308 309 -310 0
-47 -308 309 -310 0
47 -308 -309 -310 0
-47 308 -309 -310 0
-47 -308 -309 310 0
47 308 -309 310 0
-47 308 309 310 0
47 -308 309 310 0
-29 311 0
-295 311 0
29 295 -311 0
-296 312 0
294 312 0
296 -294 -312 0
31 311 312 -313 0
-31 -311 312 -313 0
-31 311 -312 -313 0
31 -311 -312 -313 0
-31 -311 -312 313 0
31 311 -312 313 0
31 -311 312 313 0
-31 311 312 313 0
307 310 313 -314 0
-307 -310 313 -314 0
-307 310 -313 -314 0
307 -310 -313 -314 0
-307 -310 -313 314 0
307 310 -313 314 0
307 -310 313 314 0
-307 310 313 314 0
15 304 314 -315 0
-15 -304 314 -315 0
-15 304 -314 -315 0
15 -304 -314 -315 0
-15 -304 -314 315 0
15 304 -314 315 0
15 -304 314 315 0
-15 304 314 315 0
-315 0
139 -147 -316 0
-139 147 -316 0
316 -139 -147 0
139 147 316 0
3 146 316 0
3 -146 -316 0
-3 146 -316 0
-3 -146 316 0
-272 286 -317 0
272 -286 -317 0
-272 -286 317 0
272 286 317 0
11 284 317 0
11 -284 -317 0
-11 284 -317 0
-11 -284 317 0
-148 161 -318 0
148 -161 -318 0
-148 -161 318 0
148 161 318 0
5 159 318 -319 0
-5 159 -318 -319 0
-5 -159 318 -319 0
5 -159 -318 -319 0
-5 -159 -318 319 0
5 -159 318 319 0
5 159 -318 319 0
-5 159 318 319 0
-319 0
1 65 138 -320 0
-1 -65 138 -320 0
65 -1 -138 -320 0
1 -65 -138 -320 0
-1 -65 -138 320 0
1 65 -138 320 0
1 -65 138 320 0
65 -1 138 320 0
-320 0
-287 301 -321 0
287 -301 -321 0
-287 -301 321 0
287 301 321 0
13 299 321 -322 0
-13 299 -321 -322 0
-13 -299 321 -322 0
13 -299 -321 -322 0
-13 -299 -321 322 0
13 -299 321 322 0
13 299 -321 322 0
-13 299 321 322 0
-322 0
-13 0
-15 0
-29 0
-31 0
